c description: Random 3-CNF over 15 variables and 80 clauses
c generator: CNFgen (0.9.0)
c copyright: (C) 2012-2020 Massimo Lauria <massimo.lauria@uniroma1.it>
c url: https://massimolauria.net/cnfgen
c
p cnf 15 80
-2 12 -13 0
-6 9 -12 0
-7 -8 11 0
-3 -11 12 0
-3 -8 9 0
9 -12 -15 0
5 -9 -12 0
-3 -8 13 0
1 5 -14 0
7 9 10 0
2 5 -6 0
6 11 13 0
2 9 -15 0
-2 -9 -13 0
3 11 13 0
-2 -6 12 0
4 -11 -12 0
-1 -7 -9 0
-9 -10 -11 0
1 4 10 0
3 4 -10 0
1 4 -11 0
4 -9 -13 0
2 4 -5 0
-11 12 -14 0
-10 -13 -15 0
-3 -5 9 0
-6 -7 -9 0
-6 -7 8 0
1 11 -13 0
2 7 -15 0
-1 -2 3 0
-7 11 13 0
4 6 -9 0
8 -11 -14 0
-5 7 15 0
-2 10 12 0
2 10 -13 0
4 -11 13 0
5 -7 8 0
2 6 -10 0
-5 -7 15 0
3 -4 -12 0
-10 12 -14 0
-4 11 -12 0
-2 6 -12 0
1 2 11 0
4 11 -15 0
-9 12 14 0
-3 8 11 0
8 10 12 0
7 9 -11 0
1 -13 -15 0
4 10 12 0
8 9 13 0
1 6 12 0
1 5 -15 0
1 5 15 0
6 -12 -13 0
5 8 -14 0
-8 10 -14 0
-1 -6 9 0
4 -5 6 0
-5 8 11 0
10 14 -15 0
1 -9 -12 0
-4 8 -9 0
5 9 -15 0
2 3 -5 0
3 -4 14 0
2 -8 10 0
-2 10 -11 0
-1 -3 5 0
-2 5 15 0
-5 -12 -13 0
4 5 10 0
-3 -6 14 0
4 -12 15 0
6 -13 -15 0
-2 -6 -8 0